
Gurobi 10.0.3 (linux64, gurobi_cl) logging started Fri Nov 10 20:46:32 2023

Set parameter Username
Set parameter TimeLimit to value 3600
Set parameter LogFile to value "RCPSP_1893.log"
Set parameter Threads to value 32
Academic license - for non-commercial use only - expires 2024-10-30
Using license file /home/jrivera6/gurobi-licenses/v1003/compute-0-34/gurobi.lic

Gurobi Optimizer version 10.0.3 build v10.0.3rc0 (linux64)
Copyright (c) 2023, Gurobi Optimization, LLC

Read MPS format model from file RCPSP_1893.mps
Reading time = 0.11 seconds
RCPSP_1893: 75288 rows, 29890 columns, 251703 nonzeros

CPU model: Intel(R) Xeon(R) Gold 6130 CPU @ 2.10GHz, instruction set [SSE2|AVX|AVX2|AVX512]
Thread count: 32 physical cores, 32 logical processors, using up to 32 threads

Optimize a model with 75288 rows, 29890 columns and 251703 nonzeros
Model fingerprint: 0xf9a240c4
Variable types: 122 continuous, 29768 integer (29768 binary)
Coefficient statistics:
  Matrix range     [1e+00, 6e+02]
  Objective range  [1e+00, 1e+00]
  Bounds range     [1e+00, 1e+00]
  RHS range        [1e+00, 7e+02]
Presolve removed 20722 rows and 5699 columns (presolve time = 5s) ...
Presolve removed 20722 rows and 5699 columns (presolve time = 10s) ...
Presolve removed 20722 rows and 5699 columns (presolve time = 15s) ...
Presolve removed 25407 rows and 7228 columns
Presolve time: 16.39s
Presolved: 49881 rows, 22662 columns, 171239 nonzeros
Variable types: 121 continuous, 22541 integer (22541 binary)

Deterministic concurrent LP optimizer: primal and dual simplex (primal and dual model)
Showing first log only...

Root relaxation presolved: 49875 rows, 22668 columns, 171227 nonzeros


Root simplex log...

Iteration    Objective       Primal Inf.    Dual Inf.      Time
       0    1.0551980e+02   7.885242e-02   2.196738e+08     18s
    2712    1.0400000e+02   0.000000e+00   0.000000e+00     19s
    2712    1.0400000e+02   0.000000e+00   0.000000e+00     19s
Concurrent spin time: 1.11s

Solved with dual simplex (primal model)

Root relaxation: objective 1.040000e+02, 7022 iterations, 3.32 seconds (0.25 work units)
Total elapsed time = 25.34s

    Nodes    |    Current Node    |     Objective Bounds      |     Work
 Expl Unexpl |  Obj  Depth IntInf | Incumbent    BestBd   Gap | It/Node Time

     0     0  104.00000    0  691          -  104.00000      -     -   37s
     0     0  110.00000    0  594          -  110.00000      -     -   38s
     0     0  110.00000    0 1388          -  110.00000      -     -   84s
     0     0  110.00000    0 1326          -  110.00000      -     -   89s
     0     0  110.00000    0 1295          -  110.00000      -     -   89s
     0     0  111.10345    0 1280          -  111.10345      -     -   93s
     0     0  111.10345    0 1156          -  111.10345      -     -   93s
     0     0  112.39080    0  515          -  112.39080      -     -  139s
     0     0  112.39080    0  515          -  112.39080      -     -  139s
     0     0  114.00000    0  658          -  114.00000      -     -  149s
     0     0  114.00000    0  656          -  114.00000      -     -  150s
     0     0  114.00000    0 1094          -  114.00000      -     -  158s
     0     0  114.00000    0 1076          -  114.00000      -     -  160s
     0     0  114.00000    0 1026          -  114.00000      -     -  160s
     0     0  114.00000    0 1083          -  114.00000      -     -  163s
     0     0  114.00000    0 1106          -  114.00000      -     -  166s
     0     0  114.00000    0 1079          -  114.00000      -     -  167s
     0     0  114.00000    0 1076          -  114.00000      -     -  167s
     0     0  114.00000    0 1246          -  114.00000      -     -  171s
     0     0  114.00000    0 1204          -  114.00000      -     -  171s
     0     0  114.13358    0 1361          -  114.13358      -     -  181s
     0     0  114.13358    0 1321          -  114.13358      -     -  183s
     0     0  114.13358    0 1288          -  114.13358      -     -  184s
     0     0  114.13358    0 1278          -  114.13358      -     -  184s
     0     0  114.13358    0 1261          -  114.13358      -     -  187s
     0     0  114.13358    0 1277          -  114.13358      -     -  189s
     0     0  114.13358    0 1263          -  114.13358      -     -  189s
     0     0  114.19758    0 1258          -  114.19758      -     -  194s
     0     0  114.19758    0 1251          -  114.19758      -     -  194s
     0     0  114.19758    0 1206          -  114.19758      -     -  202s
     0     0  114.19758    0 1196          -  114.19758      -     -  202s
     0     0  114.19758    0 1285          -  114.19758      -     -  207s
     0     0  114.19758    0 1200          -  114.19758      -     -  209s
     0     0  114.19758    0 1198          -  114.19758      -     -  209s
     0     0  114.19758    0 1271          -  114.19758      -     -  212s
     0     0  114.19758    0 1153          -  114.19758      -     -  213s
     0     0  114.30254    0  786          -  114.30254      -     -  224s
     0     0  114.30254    0  783          -  114.30254      -     -  224s
     0     0  114.30254    0  959          -  114.30254      -     -  227s
     0     0  114.30254    0  938          -  114.30254      -     -  228s
     0     0  114.30254    0 1191          -  114.30254      -     -  242s
     0     0  114.30254    0 1211          -  114.30254      -     -  244s
     0     0  114.30254    0 1193          -  114.30254      -     -  244s
     0     0  114.30254    0 1090          -  114.30254      -     -  257s
     0     0  114.30254    0 1079          -  114.30254      -     -  257s
     0     0  114.30254    0  768          -  114.30254      -     -  274s
     0     0  114.30254    0  761          -  114.30254      -     -  274s
     0     0  114.30254    0 1112          -  114.30254      -     -  281s
     0     0  114.30254    0 1010          -  114.30254      -     -  283s
     0     0  114.30254    0  966          -  114.30254      -     -  285s
     0     0  114.30254    0  970          -  114.30254      -     -  285s
     0     0  114.30254    0  350          -  114.30254      -     -  304s
     0     0  114.30254    0  785          -  114.30254      -     -  317s
     0     0  114.30254    0  802          -  114.30254      -     -  318s
     0     0  114.30254    0  342          -  114.30254      -     -  345s
     0     0  114.30254    0  330          -  114.30254      -     -  364s
     0     2  114.30254    0  280          -  114.30254      -     -  420s
     1     4  114.74038    1  409          -  114.49894      -  6132  427s
     3     7  118.00000    2  333          -  114.78652      -  2137  437s
     7    12  121.00000    3  360          -  115.00000      -  1088  445s
    14    19  121.00000    4  353          -  115.00000      -   562  452s
    26    27  121.00000    5  351          -  115.00000      -   321  459s
    45    51  121.00000    6  930          -  118.00000      -   264  505s
    72    73  122.71429    7  849          -  118.00000      -   949  544s
   104    98  125.00000    8  786          -  118.00000      -   785  565s
   136   125  125.00000    9  785          -  118.00000      -   659  583s
   168   154  125.00000   10  780          -  118.00000      -   575  607s
   201   184  125.00000   11  791          -  118.00000      -   510  626s
   234   217  125.00000   12  761          -  118.00000      -   448  641s
   267   253  125.00000   13  759          -  118.00000      -   403  659s
   304   288  125.00000   14  757          -  118.00000      -   365  675s
   340   327  125.00000   15  756          -  118.00000      -   337  686s
   380   369  125.00000   16  754          -  118.00000      -   307  707s
   423   409  125.00000   18  787          -  118.00000      -   287  724s
   467   455  125.00000   19  769          -  118.00000      -   270  745s
   516   497  125.00000   20  767          -  118.00000      -   258  763s
   563   540  125.00000   21  767          -  118.00000      -   251  778s
   612   600  125.00000   22  761          -  118.00000      -   243  802s
   672   660  125.00000   23  759          -  118.00000      -   229  818s
   734   726  125.00000   25  757          -  118.00000      -   217  838s
   801   797  125.00000   27  750          -  118.00000      -   206  858s
   874   880  125.00000   29  760          -  118.00000      -   195  882s
   958   976  125.00000   32  758          -  118.00000      -   182  902s
  1054  1072  125.00000   34  780          -  118.00000      -   169  924s
  1153  1176  125.00000   37  786          -  118.00000      -   159  942s
  1264  1289  125.00000   39  810          -  118.00000      -   148  963s
  1388  1402  125.00000   41  810          -  118.00000      -   138  982s
  1515  1483  125.00000   44  809          -  118.00000      -   131 1004s
  1613  1602  125.00000   45  829          -  118.00000      -   131 1025s
  1736  1791  134.00000   45  640          -  118.00000      -   130 1080s
  1948  2078  126.00000   46  890          -  118.00000      -   124 1206s
  2048  2078  138.00000   43 1023          -  118.00000      -   120 1218s
  2247  2202  134.00000   47  803          -  118.00000      -   113 2428s
  2272  2202  128.00000   85 1023          -  118.00000      -   112 2443s
  2273  2202  136.00000   71  996          -  118.00000      -   112 2449s
  2274  2202  142.00000   43  875          -  118.00000      -   113 2454s
  2275  2202  139.00000   89  878          -  118.00000      -   113 2462s
  2374  2202  138.00000   88  978          -  118.00000      -   116 2931s
  2389  2238  140.00000   86  844          -  118.00000      -   117 4392s
  2434  2238  130.00000   42 1278          -  118.00000      -   117 4397s

Cutting planes:
  Gomory: 19
  Cover: 122
  Implied bound: 111
  Clique: 14
  MIR: 1815
  StrongCG: 21
  Zero half: 7
  RLT: 544
  Relax-and-lift: 185

Explored 2435 nodes (418291 simplex iterations) in 4491.18 seconds (96.26 work units)
Thread count was 32 (of 32 available processors)

Solution count 0

Time limit reached
Best objective -, best bound 1.180000000000e+02, gap -

Unable to retrieve attribute 'X'

